# 47881
param k := 6;
param n := 60;
param s := 1;
set E :=  (0,19) (0,35) (1,25) (1,56) (2,9) (2,34) (3,8) (4,26) (5,48) (6,39) (6,57) (7,45) (8,49) (8,56) (8,58) (9,48) (10,14) (10,30) (10,44) (11,15) (12,41) (12,47) (13,36) (13,39) (13,58) (15,22) (15,48) (16,26) (16,29) (16,31) (16,53) (17,28) (17,37) (17,51) (18,22) (19,21) (19,38) (19,46) (20,36) (21,55) (22,41) (22,52) (22,59) (23,25) (24,51) (25,45) (26,27) (28,38) (30,42) (32,34) (33,39) (37,47) (38,42) (40,50) (43,57) (44,57) (46,53) (48,54) (50,55);